NAME: ACTUAL_TOURS/amz2477
TYPE: TOUR
COMMENT: RouteID_120e5848-8d15-4d43-ae3c-c50782a8896a
DIMENSION: 110
TOUR_SECTION
55
108
96
70
46
93
87
100
18
16
102
39
47
36
76
57
15
2
110
10
104
95
88
71
82
30
62
17
45
61
81
1
24
35
54
32
106
40
43
7
77
99
85
6
63
3
49
8
109
86
19
97
98
68
52
13
105
14
75
92
84
58
53
101
20
34
59
51
94
11
50
103
64
78
91
90
38
23
66
21
29
107
80
67
27
83
33
56
28
69
74
72
5
42
60
26
41
22
37
65
73
89
9
79
25
31
4
48
44
12
-1
EOF
